48
750
499	1
489	1
474	1
473	2
472	1
465	1
463	2
459	1
458	1
452	1
451	1
435	1
410	1
399	1
383	1
374	1
362	1
352	1
346	1
320	1
316	1
313	1
311	1
308	1
296	1
294	1
291	1
288	1
283	1
262	1
259	1
257	1
242	1
240	1
231	1
227	1
209	1
206	1
204	1
199	1
191	1
190	1
185	1
173	1
167	1
166	1
164	1
157	1
